NAME : kroB200
TYPE : OP
DIMENSION : 200
COST_LIMIT : 26494
ROUTE_NODES : 184
ROUTE_SCORE : 9842
ROUTE_COST : 26490
NODE_SEQUENCE_SECTION
1
95
98
32
167
175
59
136
29
8
99
76
97
91
129
28
158
3
11
93
122
85
73
142
123
10
68
111
189
190
117
40
39
149
70
198
67
197
5
132
194
62
26
100
56
101
150
69
75
30
181
134
49
86
138
166
108
152
38
20
80
127
124
65
188
79
113
81
179
47
141
184
37
72
169
7
84
58
52
116
163
54
154
191
177
143
171
88
23
22
193
104
55
144
160
153
24
18
162
135
130
200
19
151
137
96
119
36
45
17
78
155
13
187
126
63
31
195
156
121
82
147
128
112
15
33
6
4
83
182
64
14
125
120
42
110
109
2
16
105
77
103
183
140
106
118
185
159
50
164
43
89
196
186
60
74
165
87
114
168
133
66
145
199
178
131
157
172
35
61
27
176
180
94
57
34
25
46
71
161
12
174
90
21
-1
DEPOT_SECTION
1
-1
EOF
